p cnf 84 225
c t mc
-3 -1 0
-3 -2 0
1 2 3 0
-4 -5 -6 0
4 5 -6 0
-4 5 6 0
4 -5 6 0
6 -7 -8 0
-6 7 -8 0
6 7 8 0
-6 -7 8 0
10 -8 0
10 9 0
8 -9 -10 0
-3 10 -11 0
3 -10 -11 0
-3 -10 11 0
3 10 11 0
15 12 0
15 14 0
-12 -14 -15 0
16 -13 0
16 -15 0
13 15 -16 0
12 16 -17 0
-12 -16 -17 0
12 -16 17 0
-12 16 17 0
18 11 0
18 -17 0
-11 17 -18 0
19 -6 0
19 -16 0
6 16 -19 0
-20 -18 0
-20 19 0
18 -19 20 0
-22 -21 0
-22 -1 0
21 1 22 0
-22 -3 -23 0
22 3 -23 0
-22 3 23 0
22 -3 23 0
-24 25 -26 0
24 -25 -26 0
-24 -25 26 0
24 25 26 0
27 -26 0
27 24 0
26 -24 -27 0
29 -27 0
29 -28 0
27 28 -29 0
-30 -23 0
-30 29 0
23 -29 30 0
-32 -15 0
-32 -31 0
15 31 32 0
32 33 -34 0
-32 -33 -34 0
32 -33 34 0
-32 33 34 0
-35 23 0
-35 -26 0
-23 26 35 0
36 -27 0
36 13 0
27 -13 -36 0
37 -36 0
37 -26 0
36 26 -37 0
38 -6 0
38 -33 0
6 33 -38 0
37 -38 -39 0
-37 38 -39 0
37 38 39 0
-37 -38 39 0
-35 39 -40 0
35 -39 -40 0
-35 -39 40 0
35 39 40 0
41 34 0
41 40 0
-34 -40 -41 0
42 -43 -44 0
-42 43 -44 0
42 43 44 0
-42 -43 44 0
45 -41 0
45 -44 0
41 44 -45 0
46 -30 0
46 -45 0
30 45 -46 0
-48 -47 0
-48 13 0
47 -13 48 0
49 48 0
49 -27 0
-48 27 -49 0
50 46 0
50 -49 0
-46 49 -50 0
-51 20 0
-51 -50 0
-20 50 51 0
14 -31 -52 0
-14 31 -52 0
14 31 52 0
-14 -31 52 0
-53 -25 0
-53 -47 0
25 47 53 0
-54 52 0
-54 53 0
-52 -53 54 0
-55 5 0
-55 -15 0
-5 15 55 0
-56 -15 0
-56 -55 0
15 55 56 0
58 -13 0
58 -57 0
13 57 -58 0
-59 -56 0
-59 58 0
56 -58 59 0
60 54 0
60 -59 0
-54 59 -60 0
61 -31 0
61 21 0
31 -21 -61 0
-62 -6 0
-62 61 0
6 -61 62 0
63 60 0
63 -62 0
-60 62 -63 0
65 64 0
65 28 0
-64 -28 -65 0
-65 42 -66 0
65 -42 -66 0
-65 -42 66 0
65 42 66 0
-67 24 0
-67 14 0
-24 -14 67 0
68 -66 0
68 -67 0
66 67 -68 0
70 69 0
70 -9 0
-69 9 -70 0
70 -12 -71 0
-70 12 -71 0
70 12 71 0
-70 -12 71 0
-72 4 0
-72 -57 0
-4 57 72 0
-73 72 0
-73 38 0
-72 -38 73 0
74 -71 0
74 73 0
71 -73 -74 0
-75 -68 0
-75 74 0
68 -74 75 0
-76 -31 0
-76 -32 0
31 32 76 0
77 -75 0
77 -76 0
75 76 -77 0
78 63 0
78 77 0
-63 -77 -78 0
79 -21 0
79 16 0
21 -16 -79 0
80 79 0
80 -16 0
-79 16 -80 0
-81 42 0
-81 64 0
-42 -64 81 0
-80 81 -82 0
80 -81 -82 0
-80 -81 82 0
80 81 82 0
83 78 0
83 82 0
-78 -82 -83 0
51 83 -84 0
-51 -83 -84 0
51 -83 84 0
-51 83 84 0
-65 -5 17 18 68 0
-26 55 0
-15 -70 0
-23 -52 50 10 0
-39 66 -26 41 0
37 73 -70 -6 61 -46 80 -71 -29 0
34 54 0
2 -69 54 -8 -32 -6 41 84 50 0
22 58 -26 83 -37 -78 -63 0
35 -52 27 -5 -72 -12 0
48 50 -24 -74 -56 0
-11 -23 52 -38 -46 79 0
-9 -11 -28 -60 19 0
-78 -16 51 -81 26 46 0
53 -3 -54 -49 1 0
-38 -13 30 55 57 0
-60 23 64 75 0
-64 40 -20 74 -79 44 -51 0
-66 -11 -60 -7 -50 -51 57 44 0
-61 36 79 -66 -53 82 48 -78 -4 0
84 0
